============================[ Problem Statistics ]=============================|                                                                             ||  Number of variables:          4242                                         ||  Number of clauses:           10405                                         ||  Parse time:                   0.79 s                                       ||                                                                             |============================[ Search Statistics ]==============================| Conflicts |          ORIGINAL         |          LEARNT          | Progress ||           |    Vars  Clauses Literals |    Limit  Clauses Lit/Cl |          |===============================================================================|       100 |    1591     6610  1263911 |     2423      100     53 | 62.501 % ||       250 |    1591     6610  1263911 |     2666      250     75 | 62.495 % |===============================================================================restarts              : 4conflicts             : 427            (359 /sec)decisions             : 788            (0.00 % random) (662 /sec)propagations          : 13700          (11503 /sec)conflict literals     : 35852          (94.50 % deleted)CPU time              : 1.191 sSATISFIABLE